SAT
-1 -100 -99 -98 -97 96 -92 -49 67 51 -65 61 24 80 -73 -28 21 -29 -82 -26 -77 -42 11 59 58 -32 -64 40 -95 -25 12 84 10 -54 -91 -17 -66 -46 -55 -88 83 75 -44 -90 63 22 43 -41 78 5 -70 8 9 -18 -50 -57 -3 -6 79 -56 14 -47 52 86 -71 -85 -45 87 19 -2 37 20 35 -30 16 60 13 -39 -94 33 4 -34 -72 36 76 -48 -23 -69 93 74 -15 31 -62 -89 68 -7 81 53 -27 -38 0
